rc1_10_2

VEHICLE
NUMBER   CAPACITY
250     200

CUSTOMER
CUST NO. XCOORD.  YCOORD.  DEMAND  READY TIME DUE DATE  SERVICE TIME

0   250    250     0     0    1821     0
404 381 495 20 322 352 10
84 384 491 20 348 378 10
8 328 458 17 0 1589 10
4 352 487 27 0 1553 10
164 381 494 10 333 363 10
680 380 489 20 379 409 10
289 382 498 10 0 1531 10
480 387 488 20 362 392 10
353 351 481 10 322 352 10
639 376 494 30 274 304 10
409 347 459 25 0 1581 10
256 329 456 19 249 279 10
712 398 476 25 0 1541 10
439 332 459 35 369 399 10
893 336 493 20 1493 1523 10
463 318 497 21 0 1555 10
915 374 489 20 269 299 10
485 313 493 20 1193 1223 10
39 377 432 20 831 861 10
297 371 423 10 0 1600 10
807 368 452 16 670 700 10
719 378 493 30 282 312 10
681 380 498 10 0 1531 10
277 379 486 22 672 702 10
378 328 491 21 0 1558 10
